minimize
obj: 10 p_grid_1_
subject to
c1_2: 1 SP_1,1_ + 1000 a_1,1_ <= 1297.8466
c2_2: 1 SP_1,2_ + 1000 a_1,2_ <= 1296.9107
c3_2: 1 SP_1,3_ + 1000 a_1,3_ <= 1296.8393
c4_2: 1 SP_1,4_ + 1000 a_1,4_ <= 1296.8176
c5_2: 1 SP_1,5_ + 1000 a_1,5_ <= 1297.0771
c6_2: 1 SP_1,6_ + 1000 a_1,6_ <= 1297.6806000000001
c7_2: 1 SP_1,7_ + 1000 a_1,7_ <= 1295.1956
c8_2: 1 SP_1,8_ + 1000 a_1,8_ <= 1298.9153999999999
c9_2: 1 SP_1,9_ + 1000 a_1,9_ <= 1295.1956
c10_2: 1 SP_1,10_ + 1000 a_1,10_ <= 1295.1956
c11_2: 1 SP_1,11_ + 1000 a_1,11_ <= 1297.0393
c12_2: 1 SP_1,12_ + 1000 a_1,12_ <= 1296.8666
c13_2: 1 SP_1,13_ + 1000 a_1,13_ <= 1295.5687
c14_2: 1 SP_1,14_ + 1000 a_1,14_ <= 1296.1167
c15_2: 1 SP_1,15_ + 1000 a_1,15_ <= 1295.2167
c16_2: 1 SP_1,16_ + 1000 a_1,16_ <= 1298.8953000000001
c17_2: 1 SP_1,17_ + 1000 a_1,17_ <= 1297.967
c18_2: 1 SP_1,18_ + 1000 a_1,18_ <= 1300.6151
c19_2: 1 SP_1,19_ + 1000 a_1,19_ <= 1297.9159
c20_2: 1 SP_1,20_ + 1000 a_1,20_ <= 1299.0885
c21_2: 1 SP_1,21_ + 1000 a_1,21_ <= 1298.0691
c22_2: 1 SP_1,22_ + 1000 a_1,22_ <= 1297.9286
c23_2: 1 SP_1,23_ + 1000 a_1,23_ <= 1299.9479999999999
c24_2: 1 SP_1,24_ + 1000 a_1,24_ <= 1299.9479999999999
c25_2: 1 SP_1,25_ + 1000 a_1,25_ <= 1299.9479999999999
c26_2: 1 SP_1,26_ + 1000 a_1,26_ <= 1298.7808
c27_2: 1 SP_1,27_ + 1000 a_1,27_ <= 1297.8686
c28_2: 1 SP_1,28_ + 1000 a_1,28_ <= 1298.3082
c29_2: 1 SP_1,29_ + 1000 a_1,29_ <= 1298.025
c30_2: 1 SP_1,30_ + 1000 a_1,30_ <= 1295.492
c31_2: 1 SP_1,31_ + 1000 a_1,31_ <= 1294.7107
c32_2: 1 SP_1,32_ + 1000 a_1,32_ <= 1297.9667
c33_2: 1 SP_1,33_ + 1000 a_1,33_ <= 1297.8423
c34_2: 1 SP_1,34_ + 1000 a_1,34_ <= 1295.9926
c35_2: 1 SP_1,35_ + 1000 a_1,35_ <= 1296.2104
c36_2: 1 SP_1,36_ + 1000 a_1,36_ <= 1299.0441
c37_2: 1 SP_transformed_1,1_ - 1000 a_1,1_ <= 0
c38_2: 1 SP_transformed_1,2_ - 1000 a_1,2_ <= 0
c39_1: 1 SP_transformed_1,3_ - 1000 a_1,3_ <= 0
c40_1: 1 SP_transformed_1,4_ - 1000 a_1,4_ <= 0
c41_1: 1 SP_transformed_1,5_ - 1000 a_1,5_ <= 0
c42_1: 1 SP_transformed_1,6_ - 1000 a_1,6_ <= 0
c43_1: 1 SP_transformed_1,7_ - 1000 a_1,7_ <= 0
c44_1: 1 SP_transformed_1,8_ - 1000 a_1,8_ <= 0
c45_1: 1 SP_transformed_1,9_ - 1000 a_1,9_ <= 0
c46_1: 1 SP_transformed_1,10_ - 1000 a_1,10_ <= 0
c47_1: 1 SP_transformed_1,11_ - 1000 a_1,11_ <= 0
c48_1: 1 SP_transformed_1,12_ - 1000 a_1,12_ <= 0
c49_1: 1 SP_transformed_1,13_ - 1000 a_1,13_ <= 0
c50_1: 1 SP_transformed_1,14_ - 1000 a_1,14_ <= 0
c51_1: 1 SP_transformed_1,15_ - 1000 a_1,15_ <= 0
c52_1: 1 SP_transformed_1,16_ - 1000 a_1,16_ <= 0
c53_1: 1 SP_transformed_1,17_ - 1000 a_1,17_ <= 0
c54_1: 1 SP_transformed_1,18_ - 1000 a_1,18_ <= 0
c55_1: 1 SP_transformed_1,19_ - 1000 a_1,19_ <= 0
c56_1: 1 SP_transformed_1,20_ - 1000 a_1,20_ <= 0
c57_1: 1 SP_transformed_1,21_ - 1000 a_1,21_ <= 0
c58_1: 1 SP_transformed_1,22_ - 1000 a_1,22_ <= 0
c59_1: 1 SP_transformed_1,23_ - 1000 a_1,23_ <= 0
c60_1: 1 SP_transformed_1,24_ - 1000 a_1,24_ <= 0
c61_1: 1 SP_transformed_1,25_ - 1000 a_1,25_ <= 0
c62_1: 1 SP_transformed_1,26_ - 1000 a_1,26_ <= 0
c63_1: 1 SP_transformed_1,27_ - 1000 a_1,27_ <= 0
c64_1: 1 SP_transformed_1,28_ - 1000 a_1,28_ <= 0
c65_1: 1 SP_transformed_1,29_ - 1000 a_1,29_ <= 0
c66_1: 1 SP_transformed_1,30_ - 1000 a_1,30_ <= 0
c67_1: 1 SP_transformed_1,31_ - 1000 a_1,31_ <= 0
c68_1: 1 SP_transformed_1,32_ - 1000 a_1,32_ <= 0
c69_1: 1 SP_transformed_1,33_ - 1000 a_1,33_ <= 0
c70_1: 1 SP_transformed_1,34_ - 1000 a_1,34_ <= 0
c71_1: 1 SP_transformed_1,35_ - 1000 a_1,35_ <= 0
c72_1: 1 SP_transformed_1,36_ - 1000 a_1,36_ <= 0
c73_1: -1 SP_1,1_ + 1 SP_transformed_1,1_ + 1000 a_1,1_ <= 1000
c74_1: -1 SP_1,2_ + 1 SP_transformed_1,2_ + 1000 a_1,2_ <= 1000
c75_1: -1 SP_1,3_ + 1 SP_transformed_1,3_ + 1000 a_1,3_ <= 1000
c76_1: -1 SP_1,4_ + 1 SP_transformed_1,4_ + 1000 a_1,4_ <= 1000
c77_1: -1 SP_1,5_ + 1 SP_transformed_1,5_ + 1000 a_1,5_ <= 1000
c78_1: -1 SP_1,6_ + 1 SP_transformed_1,6_ + 1000 a_1,6_ <= 1000
c79_1: -1 SP_1,7_ + 1 SP_transformed_1,7_ + 1000 a_1,7_ <= 1000
c80_1: -1 SP_1,8_ + 1 SP_transformed_1,8_ + 1000 a_1,8_ <= 1000
c81_1: -1 SP_1,9_ + 1 SP_transformed_1,9_ + 1000 a_1,9_ <= 1000
c82_1: -1 SP_1,10_ + 1 SP_transformed_1,10_ + 1000 a_1,10_ <= 1000
c83_1: -1 SP_1,11_ + 1 SP_transformed_1,11_ + 1000 a_1,11_ <= 1000
c84_1: -1 SP_1,12_ + 1 SP_transformed_1,12_ + 1000 a_1,12_ <= 1000
c85_1: -1 SP_1,13_ + 1 SP_transformed_1,13_ + 1000 a_1,13_ <= 1000
c86_1: -1 SP_1,14_ + 1 SP_transformed_1,14_ + 1000 a_1,14_ <= 1000
c87_1: -1 SP_1,15_ + 1 SP_transformed_1,15_ + 1000 a_1,15_ <= 1000
c88_1: -1 SP_1,16_ + 1 SP_transformed_1,16_ + 1000 a_1,16_ <= 1000
c89_1: -1 SP_1,17_ + 1 SP_transformed_1,17_ + 1000 a_1,17_ <= 1000
c90_1: -1 SP_1,18_ + 1 SP_transformed_1,18_ + 1000 a_1,18_ <= 1000
c91_1: -1 SP_1,19_ + 1 SP_transformed_1,19_ + 1000 a_1,19_ <= 1000
c92_1: -1 SP_1,20_ + 1 SP_transformed_1,20_ + 1000 a_1,20_ <= 1000
c93_1: -1 SP_1,21_ + 1 SP_transformed_1,21_ + 1000 a_1,21_ <= 1000
c94_1: -1 SP_1,22_ + 1 SP_transformed_1,22_ + 1000 a_1,22_ <= 1000
c95_1: -1 SP_1,23_ + 1 SP_transformed_1,23_ + 1000 a_1,23_ <= 1000
c96_1: -1 SP_1,24_ + 1 SP_transformed_1,24_ + 1000 a_1,24_ <= 1000
c97_1: -1 SP_1,25_ + 1 SP_transformed_1,25_ + 1000 a_1,25_ <= 1000
c98_1: -1 SP_1,26_ + 1 SP_transformed_1,26_ + 1000 a_1,26_ <= 1000
c99_1: -1 SP_1,27_ + 1 SP_transformed_1,27_ + 1000 a_1,27_ <= 1000
c100_1: -1 SP_1,28_ + 1 SP_transformed_1,28_ + 1000 a_1,28_ <= 1000
c101_1: -1 SP_1,29_ + 1 SP_transformed_1,29_ + 1000 a_1,29_ <= 1000
c102_1: -1 SP_1,30_ + 1 SP_transformed_1,30_ + 1000 a_1,30_ <= 1000
c103_1: -1 SP_1,31_ + 1 SP_transformed_1,31_ + 1000 a_1,31_ <= 1000
c104_1: -1 SP_1,32_ + 1 SP_transformed_1,32_ + 1000 a_1,32_ <= 1000
c105_1: -1 SP_1,33_ + 1 SP_transformed_1,33_ + 1000 a_1,33_ <= 1000
c106_1: -1 SP_1,34_ + 1 SP_transformed_1,34_ + 1000 a_1,34_ <= 1000
c107_1: -1 SP_1,35_ + 1 SP_transformed_1,35_ + 1000 a_1,35_ <= 1000
c108_1: -1 SP_1,36_ + 1 SP_transformed_1,36_ + 1000 a_1,36_ <= 1000
c109_1: 1 bh_1_ <= 0
c110_1: 1 bc_1_ - 1 a_1,1_ - 1 a_1,2_ - 1 a_1,3_ - 1 a_1,4_ - 1 a_1,5_ - 1 a_1,6_ - 1 a_1,7_ - 1 a_1,8_ - 1 a_1,9_ - 1 a_1,10_ - 1 a_1,11_ - 1 a_1,12_ - 1 a_1,13_ - 1 a_1,14_ - 1 a_1,15_ - 1 a_1,16_ - 1 a_1,17_ - 1 a_1,18_ - 1 a_1,19_ - 1 a_1,20_ - 1 a_1,21_ - 1 a_1,22_ - 1 a_1,23_ - 1 a_1,24_ - 1 a_1,25_ - 1 a_1,26_ - 1 a_1,27_ - 1 a_1,28_ - 1 a_1,29_ - 1 a_1,30_ - 1 a_1,31_ - 1 a_1,32_ - 1 a_1,33_ - 1 a_1,34_ - 1 a_1,35_ - 1 a_1,36_ <= 0
c1_1: 1 SP_1,1_ - 1000 a_1,1_ >= -1703.1534
c2_1: 1 SP_1,2_ - 1000 a_1,2_ >= -1704.0893
c3_1: 1 SP_1,3_ - 1000 a_1,3_ >= -1704.1607
c4_1: 1 SP_1,4_ - 1000 a_1,4_ >= -1704.1824
c5_1: 1 SP_1,5_ - 1000 a_1,5_ >= -1703.9229
c6_1: 1 SP_1,6_ - 1000 a_1,6_ >= -1703.3193999999999
c7_1: 1 SP_1,7_ - 1000 a_1,7_ >= -1705.8044
c8_1: 1 SP_1,8_ - 1000 a_1,8_ >= -1702.0846000000001
c9_1: 1 SP_1,9_ - 1000 a_1,9_ >= -1705.8044
c10_1: 1 SP_1,10_ - 1000 a_1,10_ >= -1705.8044
c11_1: 1 SP_1,11_ - 1000 a_1,11_ >= -1703.9607
c12_1: 1 SP_1,12_ - 1000 a_1,12_ >= -1704.1334
c13_1: 1 SP_1,13_ - 1000 a_1,13_ >= -1705.4313
c14_1: 1 SP_1,14_ - 1000 a_1,14_ >= -1704.8833
c15_1: 1 SP_1,15_ - 1000 a_1,15_ >= -1705.7833
c16_1: 1 SP_1,16_ - 1000 a_1,16_ >= -1702.1046999999999
c17_1: 1 SP_1,17_ - 1000 a_1,17_ >= -1703.033
c18_1: 1 SP_1,18_ - 1000 a_1,18_ >= -1700.3849
c19_1: 1 SP_1,19_ - 1000 a_1,19_ >= -1703.0841
c20_1: 1 SP_1,20_ - 1000 a_1,20_ >= -1701.9115
c21_1: 1 SP_1,21_ - 1000 a_1,21_ >= -1702.9309
c22_1: 1 SP_1,22_ - 1000 a_1,22_ >= -1703.0714
c23_1: 1 SP_1,23_ - 1000 a_1,23_ >= -1701.0520000000001
c24_1: 1 SP_1,24_ - 1000 a_1,24_ >= -1701.0520000000001
c25_1: 1 SP_1,25_ - 1000 a_1,25_ >= -1701.0520000000001
c26_1: 1 SP_1,26_ - 1000 a_1,26_ >= -1702.2192
c27_1: 1 SP_1,27_ - 1000 a_1,27_ >= -1703.1314
c28_1: 1 SP_1,28_ - 1000 a_1,28_ >= -1702.6918
c29_1: 1 SP_1,29_ - 1000 a_1,29_ >= -1702.975
c30_1: 1 SP_1,30_ - 1000 a_1,30_ >= -1705.508
c31_1: 1 SP_1,31_ - 1000 a_1,31_ >= -1706.2893
c32_1: 1 SP_1,32_ - 1000 a_1,32_ >= -1703.0333
c33_1: 1 SP_1,33_ - 1000 a_1,33_ >= -1703.1577
c34_1: 1 SP_1,34_ - 1000 a_1,34_ >= -1705.0074
c35_1: 1 SP_1,35_ - 1000 a_1,35_ >= -1704.7896
c36_1: 1 SP_1,36_ - 1000 a_1,36_ >= -1701.9559
c37_1: 1 SP_transformed_1,1_ + 1000 a_1,1_ >= 0
c38_1: 1 SP_transformed_1,2_ + 1000 a_1,2_ >= 0
c39: 1 SP_transformed_1,3_ + 1000 a_1,3_ >= 0
c40: 1 SP_transformed_1,4_ + 1000 a_1,4_ >= 0
c41: 1 SP_transformed_1,5_ + 1000 a_1,5_ >= 0
c42: 1 SP_transformed_1,6_ + 1000 a_1,6_ >= 0
c43: 1 SP_transformed_1,7_ + 1000 a_1,7_ >= 0
c44: 1 SP_transformed_1,8_ + 1000 a_1,8_ >= 0
c45: 1 SP_transformed_1,9_ + 1000 a_1,9_ >= 0
c46: 1 SP_transformed_1,10_ + 1000 a_1,10_ >= 0
c47: 1 SP_transformed_1,11_ + 1000 a_1,11_ >= 0
c48: 1 SP_transformed_1,12_ + 1000 a_1,12_ >= 0
c49: 1 SP_transformed_1,13_ + 1000 a_1,13_ >= 0
c50: 1 SP_transformed_1,14_ + 1000 a_1,14_ >= 0
c51: 1 SP_transformed_1,15_ + 1000 a_1,15_ >= 0
c52: 1 SP_transformed_1,16_ + 1000 a_1,16_ >= 0
c53: 1 SP_transformed_1,17_ + 1000 a_1,17_ >= 0
c54: 1 SP_transformed_1,18_ + 1000 a_1,18_ >= 0
c55: 1 SP_transformed_1,19_ + 1000 a_1,19_ >= 0
c56: 1 SP_transformed_1,20_ + 1000 a_1,20_ >= 0
c57: 1 SP_transformed_1,21_ + 1000 a_1,21_ >= 0
c58: 1 SP_transformed_1,22_ + 1000 a_1,22_ >= 0
c59: 1 SP_transformed_1,23_ + 1000 a_1,23_ >= 0
c60: 1 SP_transformed_1,24_ + 1000 a_1,24_ >= 0
c61: 1 SP_transformed_1,25_ + 1000 a_1,25_ >= 0
c62: 1 SP_transformed_1,26_ + 1000 a_1,26_ >= 0
c63: 1 SP_transformed_1,27_ + 1000 a_1,27_ >= 0
c64: 1 SP_transformed_1,28_ + 1000 a_1,28_ >= 0
c65: 1 SP_transformed_1,29_ + 1000 a_1,29_ >= 0
c66: 1 SP_transformed_1,30_ + 1000 a_1,30_ >= 0
c67: 1 SP_transformed_1,31_ + 1000 a_1,31_ >= 0
c68: 1 SP_transformed_1,32_ + 1000 a_1,32_ >= 0
c69: 1 SP_transformed_1,33_ + 1000 a_1,33_ >= 0
c70: 1 SP_transformed_1,34_ + 1000 a_1,34_ >= 0
c71: 1 SP_transformed_1,35_ + 1000 a_1,35_ >= 0
c72: 1 SP_transformed_1,36_ + 1000 a_1,36_ >= 0
c73: -1 SP_1,1_ + 1 SP_transformed_1,1_ - 1000 a_1,1_ >= -1000
c74: -1 SP_1,2_ + 1 SP_transformed_1,2_ - 1000 a_1,2_ >= -1000
c75: -1 SP_1,3_ + 1 SP_transformed_1,3_ - 1000 a_1,3_ >= -1000
c76: -1 SP_1,4_ + 1 SP_transformed_1,4_ - 1000 a_1,4_ >= -1000
c77: -1 SP_1,5_ + 1 SP_transformed_1,5_ - 1000 a_1,5_ >= -1000
c78: -1 SP_1,6_ + 1 SP_transformed_1,6_ - 1000 a_1,6_ >= -1000
c79: -1 SP_1,7_ + 1 SP_transformed_1,7_ - 1000 a_1,7_ >= -1000
c80: -1 SP_1,8_ + 1 SP_transformed_1,8_ - 1000 a_1,8_ >= -1000
c81: -1 SP_1,9_ + 1 SP_transformed_1,9_ - 1000 a_1,9_ >= -1000
c82: -1 SP_1,10_ + 1 SP_transformed_1,10_ - 1000 a_1,10_ >= -1000
c83: -1 SP_1,11_ + 1 SP_transformed_1,11_ - 1000 a_1,11_ >= -1000
c84: -1 SP_1,12_ + 1 SP_transformed_1,12_ - 1000 a_1,12_ >= -1000
c85: -1 SP_1,13_ + 1 SP_transformed_1,13_ - 1000 a_1,13_ >= -1000
c86: -1 SP_1,14_ + 1 SP_transformed_1,14_ - 1000 a_1,14_ >= -1000
c87: -1 SP_1,15_ + 1 SP_transformed_1,15_ - 1000 a_1,15_ >= -1000
c88: -1 SP_1,16_ + 1 SP_transformed_1,16_ - 1000 a_1,16_ >= -1000
c89: -1 SP_1,17_ + 1 SP_transformed_1,17_ - 1000 a_1,17_ >= -1000
c90: -1 SP_1,18_ + 1 SP_transformed_1,18_ - 1000 a_1,18_ >= -1000
c91: -1 SP_1,19_ + 1 SP_transformed_1,19_ - 1000 a_1,19_ >= -1000
c92: -1 SP_1,20_ + 1 SP_transformed_1,20_ - 1000 a_1,20_ >= -1000
c93: -1 SP_1,21_ + 1 SP_transformed_1,21_ - 1000 a_1,21_ >= -1000
c94: -1 SP_1,22_ + 1 SP_transformed_1,22_ - 1000 a_1,22_ >= -1000
c95: -1 SP_1,23_ + 1 SP_transformed_1,23_ - 1000 a_1,23_ >= -1000
c96: -1 SP_1,24_ + 1 SP_transformed_1,24_ - 1000 a_1,24_ >= -1000
c97: -1 SP_1,25_ + 1 SP_transformed_1,25_ - 1000 a_1,25_ >= -1000
c98: -1 SP_1,26_ + 1 SP_transformed_1,26_ - 1000 a_1,26_ >= -1000
c99: -1 SP_1,27_ + 1 SP_transformed_1,27_ - 1000 a_1,27_ >= -1000
c100: -1 SP_1,28_ + 1 SP_transformed_1,28_ - 1000 a_1,28_ >= -1000
c101: -1 SP_1,29_ + 1 SP_transformed_1,29_ - 1000 a_1,29_ >= -1000
c102: -1 SP_1,30_ + 1 SP_transformed_1,30_ - 1000 a_1,30_ >= -1000
c103: -1 SP_1,31_ + 1 SP_transformed_1,31_ - 1000 a_1,31_ >= -1000
c104: -1 SP_1,32_ + 1 SP_transformed_1,32_ - 1000 a_1,32_ >= -1000
c105: -1 SP_1,33_ + 1 SP_transformed_1,33_ - 1000 a_1,33_ >= -1000
c106: -1 SP_1,34_ + 1 SP_transformed_1,34_ - 1000 a_1,34_ >= -1000
c107: -1 SP_1,35_ + 1 SP_transformed_1,35_ - 1000 a_1,35_ >= -1000
c108: -1 SP_1,36_ + 1 SP_transformed_1,36_ - 1000 a_1,36_ >= -1000
c109: 1 bh_1_ >= 0
c110: 1 bh_1_ >= 0
c111: 1 bh_1_ >= 0
c112: 1 bh_1_ >= 0
c113: 1 bh_1_ >= 0
c114: 1 bh_1_ >= 0
c115: 1 bh_1_ >= 0
c116: 1 bh_1_ >= 0
c117: 1 bh_1_ >= 0
c118: 1 bh_1_ >= 0
c119: 1 bh_1_ >= 0
c120: 1 bh_1_ >= 0
c121: 1 bh_1_ >= 0
c122: 1 bh_1_ >= 0
c123: 1 bh_1_ >= 0
c124: 1 bh_1_ >= 0
c125: 1 bh_1_ >= 0
c126: 1 bh_1_ >= 0
c127: 1 bh_1_ >= 0
c128: 1 bh_1_ >= 0
c129: 1 bh_1_ >= 0
c130: 1 bh_1_ >= 0
c131: 1 bh_1_ >= 0
c132: 1 bh_1_ >= 0
c133: 1 bh_1_ >= 0
c134: 1 bh_1_ >= 0
c135: 1 bh_1_ >= 0
c136: 1 bh_1_ >= 0
c137: 1 bh_1_ >= 0
c138: 1 bh_1_ >= 0
c139: 1 bh_1_ >= 0
c140: 1 bh_1_ >= 0
c141: 1 bh_1_ >= 0
c142: 1 bh_1_ >= 0
c143: 1 bh_1_ >= 0
c144: 1 bh_1_ >= 0
c145: 1 bc_1_ - 1 a_1,1_ >= 0
c146: 1 bc_1_ - 1 a_1,2_ >= 0
c147: 1 bc_1_ - 1 a_1,3_ >= 0
c148: 1 bc_1_ - 1 a_1,4_ >= 0
c149: 1 bc_1_ - 1 a_1,5_ >= 0
c150: 1 bc_1_ - 1 a_1,6_ >= 0
c151: 1 bc_1_ - 1 a_1,7_ >= 0
c152: 1 bc_1_ - 1 a_1,8_ >= 0
c153: 1 bc_1_ - 1 a_1,9_ >= 0
c154: 1 bc_1_ - 1 a_1,10_ >= 0
c155: 1 bc_1_ - 1 a_1,11_ >= 0
c156: 1 bc_1_ - 1 a_1,12_ >= 0
c157: 1 bc_1_ - 1 a_1,13_ >= 0
c158: 1 bc_1_ - 1 a_1,14_ >= 0
c159: 1 bc_1_ - 1 a_1,15_ >= 0
c160: 1 bc_1_ - 1 a_1,16_ >= 0
c161: 1 bc_1_ - 1 a_1,17_ >= 0
c162: 1 bc_1_ - 1 a_1,18_ >= 0
c163: 1 bc_1_ - 1 a_1,19_ >= 0
c164: 1 bc_1_ - 1 a_1,20_ >= 0
c165: 1 bc_1_ - 1 a_1,21_ >= 0
c166: 1 bc_1_ - 1 a_1,22_ >= 0
c167: 1 bc_1_ - 1 a_1,23_ >= 0
c168: 1 bc_1_ - 1 a_1,24_ >= 0
c169: 1 bc_1_ - 1 a_1,25_ >= 0
c170: 1 bc_1_ - 1 a_1,26_ >= 0
c171: 1 bc_1_ - 1 a_1,27_ >= 0
c172: 1 bc_1_ - 1 a_1,28_ >= 0
c173: 1 bc_1_ - 1 a_1,29_ >= 0
c174: 1 bc_1_ - 1 a_1,30_ >= 0
c175: 1 bc_1_ - 1 a_1,31_ >= 0
c176: 1 bc_1_ - 1 a_1,32_ >= 0
c177: 1 bc_1_ - 1 a_1,33_ >= 0
c178: 1 bc_1_ - 1 a_1,34_ >= 0
c179: 1 bc_1_ - 1 a_1,35_ >= 0
c180: 1 bc_1_ - 1 a_1,36_ >= 0
c1: 1 PVused_1_ + 1 PVcurt_1_ = 0
c2: -1 p_HVAC_1_ + 1 p_grid_1_ + 1 PVused_1_ = 0
c3: 1 T_1,1_ + 0.0013 SP_transformed_1,1_ = 296.6687999300001
c4: 1 T_1,2_ - 0.0028 SP_transformed_1,2_ - 0.0014 SP_transformed_1,4_ + 0.0008 SP_transformed_1,6_ = 294.78953123999986
c5: 1 T_1,3_ - 0.0063 SP_transformed_1,3_ - 0.0003 SP_transformed_1,4_ + 0.0005 SP_transformed_1,5_ = 294.26283057
c6: 1 T_1,4_ - 0.0008 SP_transformed_1,2_ + 0.0013 SP_transformed_1,3_ - 0.0019 SP_transformed_1,4_ = 295.63655156000004
c7: 1 T_1,5_ - 0.001 SP_transformed_1,3_ - 0.2408 SP_transformed_1,5_ = 224.74950918
c8: 1 T_1,6_ - 0.0006 SP_transformed_1,2_ - 0.0014 SP_transformed_1,6_ = 296.44141857
c9: 1 T_1,7_ + 0.0014 SP_transformed_1,7_ + 0.0015 SP_transformed_1,9_ = 295.61319821000006
c10: 1 T_1,8_ - 0.0009 SP_transformed_1,8_ + 0.0002 SP_transformed_1,11_ = 297.63351621
c11: 1 T_1,9_ - 0.3438 SP_transformed_1,9_ + 0.0008 SP_transformed_1,10_ = 194.08421638999994
c12: 1 T_1,10_ + 0.0016 SP_transformed_1,9_ + 0.0055 SP_transformed_1,10_ = 297.33098495
c13: 1 T_1,11_ + 0.0011 SP_transformed_1,8_ + 0.0027 SP_transformed_1,11_ = 296.99958852
c14: 1 T_1,12_ - 0.018 SP_transformed_1,12_ + 0.0002 SP_transformed_1,14_ = 291.01471951
c15: 1 T_1,13_ - 0.0053 SP_transformed_1,13_ = 292.9976780400001
c16: 1 T_1,14_ + 0.0001 SP_transformed_1,12_ + 0.0006 SP_transformed_1,14_ = 296.74502093000007
c17: 1 T_1,15_ + 0.0013 SP_transformed_1,15_ - 0.0005 SP_transformed_1,22_ = 296.08697822000005
c18: 1 T_1,16_ - 0.0007 SP_transformed_1,16_ - 0.0002 SP_transformed_1,17_ = 297.54717492
c19: 1 T_1,17_ + 0.0006 SP_transformed_1,16_ + 0.0007 SP_transformed_1,17_ = 297.31834101000004
c20: 1 T_1,18_ - 0.0001 SP_transformed_1,16_ - 0.0321 SP_transformed_1,18_ = 290.4708707699999
c21: 1 T_1,19_ + 0.0001 SP_transformed_1,17_ + 0.0006 SP_transformed_1,18_ + 0.0022 SP_transformed_1,19_ = 298.40946267
c22: 1 T_1,20_ + 0.0003 SP_transformed_1,20_ + 0.001 SP_transformed_1,21_ = 298.56791950999997
c23: 1 T_1,21_ - 0.0012 SP_transformed_1,21_ - 0.0001 SP_transformed_1,22_ = 296.7346913
c24: 1 T_1,22_ - 0.0008 SP_transformed_1,15_ + 0.0006 SP_transformed_1,21_ + 0.0003 SP_transformed_1,22_ = 297.05842087
c25: 1 T_1,23_ + 0.1075 SP_transformed_1,23_ = 330.48624245999997
c26: 1 T_1,24_ + 0.0009 SP_transformed_1,24_ + 0.0022 SP_transformed_1,25_ + 0.0004 SP_transformed_1,26_ = 299.0254913699999
c27: 1 T_1,25_ + 0.0003 SP_transformed_1,24_ + 0.0028 SP_transformed_1,25_ + 0.0006 SP_transformed_1,26_ = 299.3736460599998
c28: 1 T_1,26_ - 0.0002 SP_transformed_1,24_ + 0.0016 SP_transformed_1,25_ + 0.002 SP_transformed_1,26_ = 298.3520561300001
c29: 1 T_1,27_ - 0.002 SP_transformed_1,27_ + 0.0004 SP_transformed_1,28_ + 0.0004 SP_transformed_1,29_ = 296.6426578300001
c30: 1 T_1,28_ - 0.0009 SP_transformed_1,27_ - 0.0023 SP_transformed_1,28_ + 0.0009 SP_transformed_1,29_ = 296.1634121
c31: 1 T_1,29_ - 0.0001 SP_transformed_1,27_ + 0.0006 SP_transformed_1,28_ + 0.0011 SP_transformed_1,29_ = 297.61514306999993
c32: 1 T_1,30_ - 0.0013 SP_transformed_1,30_ + 0.0008 SP_transformed_1,31_ - 0.0002 SP_transformed_1,32_ + 0.0007 SP_transformed_1,33_ + 0.0005 SP_transformed_1,34_ - 0.0001 SP_transformed_1,35_ + 0.0007 SP_transformed_1,36_ = 295.20023305000007
c33: 1 T_1,31_ + 0.0008 SP_transformed_1,30_ + 0.0008 SP_transformed_1,31_ + 0.0012 SP_transformed_1,36_ = 295.59194986999995
c34: 1 T_1,32_ + 0.001 SP_transformed_1,30_ + 0.0008 SP_transformed_1,32_ - 0.0009 SP_transformed_1,35_ = 297.4083061200001
c35: 1 T_1,33_ + 0.0008 SP_transformed_1,30_ + 0.0022 SP_transformed_1,33_ + 0.0006 SP_transformed_1,34_ = 297.35293961
c36: 1 T_1,34_ + 0.0018 SP_transformed_1,30_ + 0.0009 SP_transformed_1,33_ + 0.0011 SP_transformed_1,34_ = 296.0294956899999
c37: 1 T_1,35_ + 0.0004 SP_transformed_1,30_ + 0.0001 SP_transformed_1,32_ - 0.006 SP_transformed_1,35_ + 0.0001 SP_transformed_1,36_ = 295.7112758100001
c38: 1 T_1,36_ + 0.001 SP_transformed_1,30_ + 0.0013 SP_transformed_1,31_ + 0.0007 SP_transformed_1,35_ - 0.0016 SP_transformed_1,36_ = 298.6374986000001
power_constraint_1_: 816.9749 T_1,1_ - 2224.3009 T_1,2_ + 922.0795 T_1,3_ + 1870.4671 T_1,4_ - 3129.5462 T_1,5_ - 706.3161 T_1,6_ - 1095.723 T_1,7_ + 3981.8583 T_1,8_ - 247.5353 T_1,9_ + 1038.4737 T_1,10_ + 105.3698 T_1,11_ + 2933.7065 T_1,12_ - 735.0748 T_1,13_ + 1200.8965 T_1,14_ + 1683.1343 T_1,15_ - 2117.1431 T_1,16_ + 63.2626 T_1,17_ - 1735.9747 T_1,18_ + 777.4181 T_1,19_ + 941.2011 T_1,20_ - 1750.5061 T_1,21_ - 1099.3586 T_1,22_ - 2015.6638 T_1,23_ - 1126.9093 T_1,24_ + 852.0715 T_1,25_ + 1684.7479 T_1,26_ + 138.7108 T_1,27_ + 152.2258 T_1,28_ - 3459.1118 T_1,29_ - 1498.9871 T_1,30_ + 404.0817 T_1,31_ - 645.1048 T_1,32_ + 1069.5389 T_1,33_ - 2026.4288 T_1,34_ + 1963.6369 T_1,35_ - 53.2628 T_1,36_ + 1 p_HVAC_1_ = -874843.5047053897
Bounds
294.15 <= T_1,1_ <= 303.15
294.15 <= T_1,2_ <= 303.15
294.15 <= T_1,3_ <= 303.15
294.15 <= T_1,4_ <= 303.15
294.15 <= T_1,5_ <= 303.15
294.15 <= T_1,6_ <= 303.15
294.15 <= T_1,7_ <= 303.15
294.15 <= T_1,8_ <= 303.15
294.15 <= T_1,9_ <= 303.15
294.15 <= T_1,10_ <= 303.15
294.15 <= T_1,11_ <= 303.15
294.15 <= T_1,12_ <= 303.15
294.15 <= T_1,13_ <= 303.15
294.15 <= T_1,14_ <= 303.15
294.15 <= T_1,15_ <= 303.15
294.15 <= T_1,16_ <= 303.15
294.15 <= T_1,17_ <= 303.15
294.15 <= T_1,18_ <= 303.15
294.15 <= T_1,19_ <= 303.15
294.15 <= T_1,20_ <= 303.15
294.15 <= T_1,21_ <= 303.15
294.15 <= T_1,22_ <= 303.15
294.15 <= T_1,23_ <= 303.15
294.15 <= T_1,24_ <= 303.15
294.15 <= T_1,25_ <= 303.15
294.15 <= T_1,26_ <= 303.15
294.15 <= T_1,27_ <= 303.15
294.15 <= T_1,28_ <= 303.15
294.15 <= T_1,29_ <= 303.15
294.15 <= T_1,30_ <= 303.15
294.15 <= T_1,31_ <= 303.15
294.15 <= T_1,32_ <= 303.15
294.15 <= T_1,33_ <= 303.15
294.15 <= T_1,34_ <= 303.15
294.15 <= T_1,35_ <= 303.15
294.15 <= T_1,36_ <= 303.15
p_HVAC_1_ >= 0
292.15 <= SP_1,1_ <= 303.15
292.15 <= SP_1,2_ <= 303.15
292.15 <= SP_1,3_ <= 303.15
292.15 <= SP_1,4_ <= 303.15
292.15 <= SP_1,5_ <= 303.15
292.15 <= SP_1,6_ <= 303.15
292.15 <= SP_1,7_ <= 303.15
292.15 <= SP_1,8_ <= 303.15
292.15 <= SP_1,9_ <= 303.15
292.15 <= SP_1,10_ <= 303.15
292.15 <= SP_1,11_ <= 303.15
292.15 <= SP_1,12_ <= 303.15
292.15 <= SP_1,13_ <= 303.15
292.15 <= SP_1,14_ <= 303.15
292.15 <= SP_1,15_ <= 303.15
292.15 <= SP_1,16_ <= 303.15
292.15 <= SP_1,17_ <= 303.15
292.15 <= SP_1,18_ <= 303.15
292.15 <= SP_1,19_ <= 303.15
292.15 <= SP_1,20_ <= 303.15
292.15 <= SP_1,21_ <= 303.15
292.15 <= SP_1,22_ <= 303.15
292.15 <= SP_1,23_ <= 303.15
292.15 <= SP_1,24_ <= 303.15
292.15 <= SP_1,25_ <= 303.15
292.15 <= SP_1,26_ <= 303.15
292.15 <= SP_1,27_ <= 303.15
292.15 <= SP_1,28_ <= 303.15
292.15 <= SP_1,29_ <= 303.15
292.15 <= SP_1,30_ <= 303.15
292.15 <= SP_1,31_ <= 303.15
292.15 <= SP_1,32_ <= 303.15
292.15 <= SP_1,33_ <= 303.15
292.15 <= SP_1,34_ <= 303.15
292.15 <= SP_1,35_ <= 303.15
292.15 <= SP_1,36_ <= 303.15
0 <= p_grid_1_ <= 100000000
PVused_1_ = 0
PVcurt_1_ = 0
0 <= SP_transformed_1,1_ <= 303.15
0 <= SP_transformed_1,2_ <= 303.15
0 <= SP_transformed_1,3_ <= 303.15
0 <= SP_transformed_1,4_ <= 303.15
0 <= SP_transformed_1,5_ <= 303.15
0 <= SP_transformed_1,6_ <= 303.15
0 <= SP_transformed_1,7_ <= 303.15
0 <= SP_transformed_1,8_ <= 303.15
0 <= SP_transformed_1,9_ <= 303.15
0 <= SP_transformed_1,10_ <= 303.15
0 <= SP_transformed_1,11_ <= 303.15
0 <= SP_transformed_1,12_ <= 303.15
0 <= SP_transformed_1,13_ <= 303.15
0 <= SP_transformed_1,14_ <= 303.15
0 <= SP_transformed_1,15_ <= 303.15
0 <= SP_transformed_1,16_ <= 303.15
0 <= SP_transformed_1,17_ <= 303.15
0 <= SP_transformed_1,18_ <= 303.15
0 <= SP_transformed_1,19_ <= 303.15
0 <= SP_transformed_1,20_ <= 303.15
0 <= SP_transformed_1,21_ <= 303.15
0 <= SP_transformed_1,22_ <= 303.15
0 <= SP_transformed_1,23_ <= 303.15
0 <= SP_transformed_1,24_ <= 303.15
0 <= SP_transformed_1,25_ <= 303.15
0 <= SP_transformed_1,26_ <= 303.15
0 <= SP_transformed_1,27_ <= 303.15
0 <= SP_transformed_1,28_ <= 303.15
0 <= SP_transformed_1,29_ <= 303.15
0 <= SP_transformed_1,30_ <= 303.15
0 <= SP_transformed_1,31_ <= 303.15
0 <= SP_transformed_1,32_ <= 303.15
0 <= SP_transformed_1,33_ <= 303.15
0 <= SP_transformed_1,34_ <= 303.15
0 <= SP_transformed_1,35_ <= 303.15
0 <= SP_transformed_1,36_ <= 303.15
Binary
bh_1_
bc_1_
a_1,1_
a_1,2_
a_1,3_
a_1,4_
a_1,5_
a_1,6_
a_1,7_
a_1,8_
a_1,9_
a_1,10_
a_1,11_
a_1,12_
a_1,13_
a_1,14_
a_1,15_
a_1,16_
a_1,17_
a_1,18_
a_1,19_
a_1,20_
a_1,21_
a_1,22_
a_1,23_
a_1,24_
a_1,25_
a_1,26_
a_1,27_
a_1,28_
a_1,29_
a_1,30_
a_1,31_
a_1,32_
a_1,33_
a_1,34_
a_1,35_
a_1,36_
End
